(set-info :smt-lib-version 2.6)
(set-logic ALL)
(set-info :source |
Benchmarks used in the followin paper:
Big proof engines as little proof engines: new results on rewrite-based satisfiability procedure
Alessandro Armando, Maria Paola Bonacina, Silvio Ranise, Stephan Schulz. 
PDPAR'05
http://www.ai.dist.unige.it/pdpar05/


|)
(set-info :category "crafted")
(set-info :status unsat)

(declare-sort Element 0)
(declare-fun a_80 () (Seq Element))
(declare-fun a_81 () (Seq Element))
(declare-fun a_82 () (Seq Element))
(declare-fun a_83 () (Seq Element))
(declare-fun a_84 () (Seq Element))
(declare-fun a_85 () (Seq Element))
(declare-fun a_86 () (Seq Element))
(declare-fun a_87 () (Seq Element))
(declare-fun a_88 () (Seq Element))
(declare-fun a_89 () (Seq Element))
(declare-fun a_90 () (Seq Element))
(declare-fun a_91 () (Seq Element))
(declare-fun a_92 () (Seq Element))
(declare-fun a_93 () (Seq Element))
(declare-fun a_94 () (Seq Element))
(declare-fun a_95 () (Seq Element))
(declare-fun a_96 () (Seq Element))
(declare-fun a_97 () (Seq Element))
(declare-fun a_98 () (Seq Element))
(declare-fun a_99 () (Seq Element))
(declare-fun a1 () (Seq Element))
(declare-fun e1 () Element)
(declare-fun e10 () Element)
(declare-fun e2 () Element)
(declare-fun e3 () Element)
(declare-fun e4 () Element)
(declare-fun e5 () Element)
(declare-fun e6 () Element)
(declare-fun e7 () Element)
(declare-fun e8 () Element)
(declare-fun e9 () Element)
(declare-fun i1 () Int)
(declare-fun i10 () Int)
(declare-fun i2 () Int)
(declare-fun i3 () Int)
(declare-fun i4 () Int)
(declare-fun i5 () Int)
(declare-fun i6 () Int)
(declare-fun i7 () Int)
(declare-fun i8 () Int)
(declare-fun i9 () Int)
(assert (= a_80 (seq.update a1 i1 (seq.unit e1))))
(assert (= a_81 (seq.update a_80 i2 (seq.unit e2))))
(assert (= a_82 (seq.update a_81 i3 (seq.unit e3))))
(assert (= a_83 (seq.update a_82 i4 (seq.unit e4))))
(assert (= a_84 (seq.update a_83 i5 (seq.unit e5))))
(assert (= a_85 (seq.update a_84 i6 (seq.unit e6))))
(assert (= a_86 (seq.update a_85 i7 (seq.unit e7))))
(assert (= a_87 (seq.update a_86 i8 (seq.unit e8))))
(assert (= a_88 (seq.update a_87 i9 (seq.unit e9))))
(assert (= a_89 (seq.update a_88 i10 (seq.unit e10))))
(assert (= a_90 (seq.update a1 i9 (seq.unit e9))))
(assert (= a_91 (seq.update a_90 i6 (seq.unit e6))))
(assert (= a_92 (seq.update a_91 i7 (seq.unit e7))))
(assert (= a_93 (seq.update a_92 i8 (seq.unit e8))))
(assert (= a_94 (seq.update a_93 i2 (seq.unit e2))))
(assert (= a_95 (seq.update a_94 i5 (seq.unit e5))))
(assert (= a_96 (seq.update a_95 i3 (seq.unit e3))))
(assert (= a_97 (seq.update a_96 i10 (seq.unit e10))))
(assert (= a_98 (seq.update a_97 i4 (seq.unit e4))))
(assert (= a_99 (seq.update a_98 i1 (seq.unit e1))))
(assert (not (= i9 i10)))
(assert (not (= i8 i10)))
(assert (not (= i8 i9)))
(assert (not (= i7 i10)))
(assert (not (= i7 i9)))
(assert (not (= i7 i8)))
(assert (not (= i6 i10)))
(assert (not (= i6 i9)))
(assert (not (= i6 i8)))
(assert (not (= i6 i7)))
(assert (not (= i5 i10)))
(assert (not (= i5 i9)))
(assert (not (= i5 i8)))
(assert (not (= i5 i7)))
(assert (not (= i5 i6)))
(assert (not (= i4 i10)))
(assert (not (= i4 i9)))
(assert (not (= i4 i8)))
(assert (not (= i4 i7)))
(assert (not (= i4 i6)))
(assert (not (= i4 i5)))
(assert (not (= i3 i10)))
(assert (not (= i3 i9)))
(assert (not (= i3 i8)))
(assert (not (= i3 i7)))
(assert (not (= i3 i6)))
(assert (not (= i3 i5)))
(assert (not (= i3 i4)))
(assert (not (= i2 i10)))
(assert (not (= i2 i9)))
(assert (not (= i2 i8)))
(assert (not (= i2 i7)))
(assert (not (= i2 i6)))
(assert (not (= i2 i5)))
(assert (not (= i2 i4)))
(assert (not (= i2 i3)))
(assert (not (= i1 i10)))
(assert (not (= i1 i9)))
(assert (not (= i1 i8)))
(assert (not (= i1 i7)))
(assert (not (= i1 i6)))
(assert (not (= i1 i5)))
(assert (not (= i1 i4)))
(assert (not (= i1 i3)))
(assert (not (= i1 i2)))
(assert (not (= a_89 a_99)))
(check-sat)
(exit)
